SCIP Status        : problem is solved [optimal solution found]
Total Time         :      17.67
  solving          :      17.67
  presolving       :       0.01 (included in solving)
  reading          :       0.00
  copying          :       0.02 (6 #copies) (minimal 0.00, maximal 0.00, average 0.00)
Original Problem   :
  Problem name     : sfacloc2_4_95
  Variables        : 340 (9 binary, 60 integer, 0 implicit integer, 271 continuous)
  Constraints      : 445 initial, 445 maximal
  Objective        : minimize, 15 non-zeros (abs.min = 1, abs.max = 1)
Presolved Problem  :
  Problem name     : t_sfacloc2_4_95
  Variables        : 428 (65 binary, 0 integer, 0 implicit integer, 363 continuous)
  Constraints      : 315 initial, 367 maximal
  Objective        : minimize, 15 non-zeros (abs.min = 1, abs.max = 1)
  Nonzeros         : 852 constraint, 118 clique table
Presolvers         :   ExecTime  SetupTime  Calls  FixedVars   AggrVars   ChgTypes  ChgBounds   AddHoles    DelCons    AddCons   ChgSides   ChgCoefs
  boundshift       :       0.00       0.00      0          0          0          0          0          0          0          0          0          0
  convertinttobin  :       0.00       0.00      0          0          0          0          0          0          0          0          0          0
  domcol           :       0.00       0.00      1          0          0          0          0          0          0          0          0          0
  dualagg          :       0.00       0.00      0          0          0          0          0          0          0          0          0          0
  dualcomp         :       0.00       0.00      1          0          0          0          0          0          0          0          0          0
  dualinfer        :       0.00       0.00      0          0          0          0          0          0          0          0          0          0
  dualsparsify     :       0.00       0.00      1          0          0          0          0          0          0          0          0          0
  gateextraction   :       0.00       0.00      0          0          0          0          0          0          0          0          0          0
  implics          :       0.00       0.00      2          0          0          0          0          0          0          0          0          0
  inttobinary      :       0.00       0.00      0          0          0          0          0          0          0          0          0          0
  qpkktref         :       0.00       0.00      0          0          0          0          0          0          0          0          0          0
  redvub           :       0.00       0.00      0          0          0          0          0          0          0          0          0          0
  sparsify         :       0.00       0.00      1          0          0          0          0          0          0          0          0          0
  stuffing         :       0.00       0.00      0          0          0          0          0          0          0          0          0          0
  trivial          :       0.00       0.00      5          0          0          0          0          0          0          0          0          0
  tworowbnd        :       0.00       0.00      0          0          0          0          0          0          0          0          0          0
  dualfix          :       0.00       0.00      5          7          0          0          0          0          0          0          0          0
  genvbounds       :       0.00       0.00      0          0          0          0          0          0          0          0          0          0
  probing          :       0.00       0.00      1          0          0          0          0          0          0          0          0          0
  pseudoobj        :       0.00       0.00      0          0          0          0          0          0          0          0          0          0
  symmetry         :       0.00       0.00      1          0          0          0          0          0          0          0          0          0
  vbounds          :       0.00       0.00      1          0          0          0          0          0          0          0          0          0
  knapsack         :       0.00       0.00      0          0          0          0          0          0          0          0          0          0
  setppc           :       0.00       0.00      3          0          0          0          0          0          0          0          0          0
  linear           :       0.00       0.00      7          0        125          0          0          0        130          0          6          6
  logicor          :       0.00       0.00      0          0          0          0          0          0          0          0          0          0
  nonlinear        :       0.01       0.00      8          0          0          0          0          0          0          0          0         -6
  benders          :       0.00       0.00      0          0          0          0          0          0          0          0          0          0
  components       :       0.00       0.00      1          0          0          0          0          0          0          0          0          0
  root node        :          -          -      -          3          -          -         80          -          -          -          -          -
Constraints        :     Number  MaxNumber  #Separate #Propagate    #EnfoLP    #EnfoRelax  #EnfoPS    #Check   #ResProp    Cutoffs    DomReds       Cuts    Applied      Conss   Children
  benderslp        :          0          0          0          0       1499          0          0        269          0          0          0          0          0          0          0
  integral         :          0          0          0          0       1499          0          0        269          0          0        128          0          0         29       2890
  knapsack         :          0+         2          0       3652          0          0          0          0          3          0         69          0          0          0          0
  setppc           :         24         24         11      11745          1          0          0        264        211         41       4518          0          0          0          0
  linear           :        231+       246         11      11898          7          0          0        226        456        131      27181          0          0          0          0
  logicor          :          0+        45         11       2259          0          0          0          0          2          0         24          0          0          0          0
  nonlinear        :         60         60       2683      11767          7          0          0        222          0          8      24217       2413       2200          0          0
  benders          :          0          0          0          0          7          0          0         17          0          0          0          0          0          0          0
  countsols        :          0          0          0          0          7          0          0         17          0          0          0          0          0          0          0
  components       :          0          0          0          0          0          0          0          0          0          0          0          0          0          0          0
Constraint Timings :  TotalTime  SetupTime   Separate  Propagate     EnfoLP     EnfoPS     EnfoRelax   Check    ResProp    SB-Prop
  benderslp        :       0.00       0.00       0.00       0.00       0.00       0.00       0.00       0.00       0.00       0.00
  integral         :       0.55       0.00       0.00       0.00       0.55       0.00       0.00       0.00       0.00       0.00
  knapsack         :       0.00       0.00       0.00       0.00       0.00       0.00       0.00       0.00       0.00       0.00
  setppc           :       0.03       0.00       0.00       0.03       0.00       0.00       0.00       0.00       0.00       0.00
  linear           :       0.11       0.00       0.00       0.10       0.00       0.00       0.00       0.01       0.00       0.01
  logicor          :       0.00       0.00       0.00       0.00       0.00       0.00       0.00       0.00       0.00       0.00
  nonlinear        :       2.48       0.00       2.15       0.29       0.00       0.00       0.00       0.02       0.00       0.02
  benders          :       0.00       0.00       0.00       0.00       0.00       0.00       0.00       0.00       0.00       0.00
  countsols        :       0.00       0.00       0.00       0.00       0.00       0.00       0.00       0.00       0.00       0.00
  components       :       0.00       0.00       0.00       0.00       0.00       0.00       0.00       0.00       0.00       0.00
Propagators        : #Propagate   #ResProp    Cutoffs    DomReds
  dualfix          :          2          0          0          0
  genvbounds       :        749          0          0       2241
  nlobbt           :          0          0          0          0
  obbt             :          1          0          0          0
  probing          :          0          0          0          0
  pseudoobj        :       9629          0          0        889
  redcost          :       4358          0          0          0
  rootredcost      :         13          0          0          7
  symmetry         :          0          0          0          0
  vbounds          :       5005          0          0          0
Propagator Timings :  TotalTime  SetupTime   Presolve  Propagate    ResProp    SB-Prop
  dualfix          :       0.00       0.00       0.00       0.00       0.00       0.00
  genvbounds       :       0.01       0.00       0.00       0.01       0.00       0.00
  nlobbt           :       0.00       0.00       0.00       0.00       0.00       0.00
  obbt             :       0.13       0.00       0.00       0.13       0.00       0.00
  probing          :       0.00       0.00       0.00       0.00       0.00       0.00
  pseudoobj        :       0.01       0.00       0.00       0.01       0.00       0.00
  redcost          :       0.01       0.00       0.00       0.01       0.00       0.00
  rootredcost      :       0.00       0.00       0.00       0.00       0.00       0.00
  symmetry         :       0.00       0.00       0.00       0.00       0.00       0.00
  vbounds          :       0.00       0.00       0.00       0.00       0.00       0.00
Conflict Analysis  :       Time      Calls    Success    DomReds  Conflicts   Literals    Reconvs ReconvLits   Dualrays   Nonzeros   LP Iters   (pool size: [10000,10000])
  propagation      :       0.00         48         41          -        138       12.0          1       14.0          -          -          -
  infeasible LP    :       0.00         12          9          -         36        9.8          0        0.0          9       24.2          0
  bound exceed. LP :       0.02        253         70          -          0        0.0          0        0.0         70       57.7         10
  strong branching :       0.00          0          0          -          0        0.0          0        0.0          -          -          0
  pseudo solution  :       0.00          0          0          -          0        0.0          0        0.0          -          -          -
  applied globally :       0.00          -          -          0         48        6.8          -          -          9          -          -
  applied locally  :          -          -          -          0         18       12.4          -          -         70          -          -
Separators         :   ExecTime  SetupTime      Calls  RootCalls    Cutoffs    DomReds  FoundCuts ViaPoolAdd  DirectAdd    Applied ViaPoolApp  DirectApp      Conss
  cut pool         :       0.22          -       1366         21          -          -       8796      13973          -          -          -          -          -    (maximal pool size:       1680)
  aggregation      :       0.92       0.00        710         11          0          0       4157       6383          0       1101       1101          0          0
  > cmir           :          -          -          -          -          -          -          -       5254          0        689        689          0          -
  > flowcover      :          -          -          -          -          -          -          -        873          0        335        335          0          -
  > knapsackcover  :          -          -          -          -          -          -          -        256          0         77         77          0          -
  cgmip            :       0.00       0.00          0          0          0          0          0          0          0          0          0          0          0
  clique           :       0.00       0.00         11         11          0          0          0          0          0          0          0          0          0
  closecuts        :       0.00       0.00          0          0          0          0          0          0          0          0          0          0          0
  convexproj       :       0.00       0.00          0          0          0          0          0          0          0          0          0          0          0
  disjunctive      :       0.00       0.00          0          0          0          0          0          0          0          0          0          0          0
  eccuts           :       0.00       0.00          0          0          0          0          0          0          0          0          0          0          0
  gauge            :       0.00       0.00          0          0          0          0          0          0          0          0          0          0          0
  gomory           :       0.39       0.00        587         10          0          0       4602       7403          0       1146       1146          0          0
  > gomorymi       :          -          -          -          -          -          -          -       7220          0       1055       1055          0          -
  > strongcg       :          -          -          -          -          -          -          -        183          0         91         91          0          -
  impliedbounds    :       0.01       0.00        710         11          0          0         20         19          0         14         14          0          0
  interminor       :       0.00       0.00          0          0          0          0          0          0          0          0          0          0          0
  intobj           :       0.00       0.00          0          0          0          0          0          0          0          0          0          0          0
  mcf              :       0.00       0.00          1          1          0          0          0          0          0          0          0          0          0
  minor            :       0.00       0.00          0          0          0          0          0          0          0          0          0          0          0
  mixing           :       0.00       0.00        710         11          0          0          0          0          0          0          0          0          0
  oddcycle         :       0.00       0.00          0          0          0          0          0          0          0          0          0          0          0
  rapidlearning    :       0.00       0.00          0          0          0          0          0          0          0          0          0          0          0
  rlt              :       0.00       0.00         10         10          0          0          0          0          0          0          0          0          0
  zerohalf         :       0.05       0.00        588         11          0          0         17        168          0         47         47          0          0
Cutselectors       :   ExecTime  SetupTime      Calls  RootCalls   Selected     Forced   Filtered  RootSelec   RootForc   RootFilt 
  hybrid           :       0.01       0.00       1373         11       4508          0      11878        179          0        140
Pricers            :   ExecTime  SetupTime      Calls       Vars
  problem variables:       0.00          -          0          0
Branching Rules    :   ExecTime  SetupTime   BranchLP  BranchExt   BranchPS    Cutoffs    DomReds       Cuts      Conss   Children
  allfullstrong    :       0.00       0.00          0          0          0          0          0          0          0          0
  cloud            :       0.00       0.00          0          0          0          0          0          0          0          0
  distribution     :       0.00       0.00          0          0          0          0          0          0          0          0
  fullstrong       :       0.00       0.00          0          0          0          0          0          0          0          0
  inference        :       0.00       0.00          0          0          0          0          0          0          0          0
  leastinf         :       0.00       0.00          0          0          0          0          0          0          0          0
  lookahead        :       0.00       0.00          0          0          0          0          0          0          0          0
  mostinf          :       0.00       0.00          0          0          0          0          0          0          0          0
  multaggr         :       0.00       0.00          0          0          0          0          0          0          0          0
  nodereopt        :       0.00       0.00          0          0          0          0          0          0          0          0
  pscost           :       0.00       0.00          0          0          0          0          0          0          0          0
  random           :       0.00       0.00          0          0          0          0          0          0          0          0
  relpscost        :       0.55       0.00       1492          0          0          0        128          0         29       2890
  vanillafullstrong:       0.00       0.00          0          0          0          0          0          0          0          0
Primal Heuristics  :   ExecTime  SetupTime      Calls      Found       Best
  LP solutions     :       0.00          -          -          7          7
  relax solutions  :       0.00          -          -          0          0
  pseudo solutions :       0.00          -          -          0          0
  strong branching :       0.00          -          -          1          1
  actconsdiving    :       0.00       0.00          0          0          0
  adaptivediving   :       0.04       0.00         20          1          1
  alns             :       0.08       0.00          4          0          0
  bound            :       0.00       0.00          0          0          0
  clique           :       0.01       0.00          1          0          0
  coefdiving       :       0.00       0.00          0          0          0
  completesol      :       0.00       0.00          0          0          0
  conflictdiving   :       0.03       0.00         11          0          0
  crossover        :       0.00       0.00          0          0          0
  dins             :       0.00       0.00          0          0          0
  distributiondivin:       0.06       0.00         10          0          0
  dps              :       0.00       0.00          0          0          0
  dualval          :       0.00       0.00          0          0          0
  farkasdiving     :       0.00       0.00          0          0          0
  feaspump         :       0.03       0.00          2          0          0
  fixandinfer      :       0.00       0.00          0          0          0
  fracdiving       :       0.02       0.00         10          0          0
  gins             :       0.00       0.00          0          0          0
  guideddiving     :       0.02       0.00         11          0          0
  indicator        :       0.00       0.00          0          0          0
  indicatordiving  :       0.00       0.00          0          0          0
  intdiving        :       0.00       0.00          0          0          0
  intshifting      :       0.01       0.00          9          0          0
  linesearchdiving :       0.02       0.00         11          0          0
  localbranching   :       0.00       0.00          0          0          0
  locks            :       0.00       0.00          1          0          0
  lpface           :       0.00       0.00          0          0          0
  mpec             :       5.68       0.00          1          0          0
  multistart       :       0.00       0.00          0          0          0
  mutation         :       0.00       0.00          0          0          0
  nlpdiving        :       2.43       0.00          7          6          1
  objpscostdiving  :       0.12       0.00          6          1          0
  octane           :       0.00       0.00          0          0          0
  ofins            :       0.00       0.00          0          0          0
  oneopt           :       0.00       0.00         14          0          0
  padm             :       0.00       0.00          0          0          0
  proximity        :       0.00       0.00          0          0          0
  pscostdiving     :       0.02       0.00         11          0          0
  randrounding     :       0.01       0.00         56          0          0
  rens             :       0.00       0.00          0          0          0
  reoptsols        :       0.00       0.00          0          0          0
  repair           :       0.00       0.00          0          0          0
  rins             :       0.09       0.00          1          1          0
  rootsoldiving    :       0.06       0.00          6          1          0
  rounding         :       0.01       0.00        696          0          0
  shiftandpropagate:       0.00       0.00          1          0          0
  shifting         :       0.06       0.00        351          0          0
  simplerounding   :       0.00       0.00          0          0          0
  subnlp           :       0.04       0.00          7          1          1
  trivial          :       0.00       0.00          2          0          0
  trivialnegation  :       0.00       0.00          0          0          0
  trustregion      :       0.00       0.00          0          0          0
  trysol           :       0.00       0.00          2          2          2
  twoopt           :       0.00       0.00          0          0          0
  undercover       :       0.02       0.00          1          2          2
  vbounds          :       0.00       0.00          0          0          0
  veclendiving     :       0.02       0.00         11          0          0
  zeroobj          :       0.00       0.00          0          0          0
  zirounding       :       0.00       0.00       1000          0          0
  other solutions  :          -          -          -          0          -
Expressions        :   #IntEval  IntEvalTi   #RevProp  RevPropTi    DomReds    Cutoffs  #Estimate  EstimTime  Branching  #Simplify SimplifyTi Simplified
  pow              :          0       0.00          0       0.00          0          0          0       0.00          0          0       0.00          0
  prod             :      44598       0.01        364       0.00         39          0     122428       1.67          0        360       0.00        200
  sum              :        572       0.00         28       0.00          0          0        421       0.00          0        580       0.00        360
  val              :          0       0.00          0       0.00          0          0          0       0.00          0          0       0.00          0
  var              :      96508       0.01          0       0.00          0          0          0       0.00          0        712       0.00        192
  varidx           :          0       0.00          0       0.00          0          0          0       0.00          0          0       0.00          0
Nlhdlrs            :    Detects  DetectAll DetectTime   #IntEval  IntEvalTi   #RevProp  RevPropTi    DomReds    Cutoffs   #Enforce   EnfoTime       Cuts  Branching
  soc              :          0          0       0.00          0       0.00          0       0.00          0          0          0       0.00          0          0
  convex           :          0          0       0.00          0       0.00          0       0.00          0          0          0       0.00          0          0
  concave          :          0          0       0.00          0       0.00          0       0.00          0          0          0       0.00          0          0
  signomial        :          0          0       0.00          0       0.00          0       0.00          0          0          0       0.00          0          0
  quotient         :          0          0       0.00          0       0.00          0       0.00          0          0          0       0.00          0          0
  quadratic        :         60        524       0.00      60626       0.08      18794       0.05       4178          6          0       0.00          0          0
  default          :        420       2392       0.00      44924       0.02        995       0.00         39          0     122849       1.82       2413          0
  bilinear         :          0          0       0.00          0       0.00          0       0.00          0          0          0       0.00          0          0
  perspective      :          0          0       0.00          0       0.00          0       0.00          0          0          0       0.00          0          0
LP                 :       Time      Calls Iterations  Iter/call   Iter/sec  Time-0-It Calls-0-It    ItLimit
  primal LP        :       0.40        479          0       0.00       0.00       0.40        479
  dual LP          :       2.70       4214      55686      13.24   20630.04       0.01          8
  lex dual LP      :       0.00          0          0       0.00          -
  barrier LP       :       0.00          0          0       0.00          -       0.00          0
  resolve instable :       0.00          0          0       0.00          -
  diving/probing LP:       0.44        585       8406      14.37   18975.98
  strong branching :       0.39        339      13747      40.55   35351.87          -          -         31
    (at root node) :          -         26       3951     151.96          -
  conflict analysis:       0.00          1         10      10.00          -
NLP relaxation     :
  solve time       :       2.39 (24 calls)
  convexity        :  nonconvex (255 linear rows, 0 convex ineq., 60 nonconvex ineq., 0 nonlinear eq. or two-sided ineq.)
NLP Solvers        :  #Problems  ProblemTi    #Solves  SolveTime      #Iter  Time/Iter      #Okay #TimeLimit #IterLimit #LObjLimit #Interrupt  #NumError #EvalError  #OutOfMem #LicenseEr #OtherTerm   #GlobOpt    #LocOpt  #Feasible #LocInfeas #GlobInfea #Unbounded   #Unknown
  ipopt            :          2       0.02         28       8.06       1217       0.01         28          0          0          0          0          0          0          0          0          0          0         24          0          3          0          0          1
B&B Tree           :
  number of runs   :          1
  nodes            :       2875 (1445 internal, 1430 leaves)
  feasible leaves  :          7
  infeas. leaves   :         85
  objective leaves :       1338
  nodes (total)    :       2875 (1445 internal, 1430 leaves)
  nodes left       :          0
  max depth        :         24
  max depth (total):         24
  backtracks       :        854 (29.7%)
  early backtracks :          0 (0.0%)
  nodes exc. ref.  :          0 (0.0%)
  delayed cutoffs  :          0
  repropagations   :         31 (240 domain reductions, 0 cutoffs)
  avg switch length:       5.13
  switching time   :       0.62
Root Node          :
  First LP value   : +0.00000000000000e+00
  First LP Iters   :          0
  First LP Time    :       0.01
  Final Dual Bound : +0.00000000000000e+00
  Final Root Iters :        812
  Root LP Estimate : +2.73981942605807e+01
Solution           :
  Solutions found  :         23 (15 improvements)
  First Solution   : +1.31526782306200e+02   (in run 1, after 1 nodes, 0.05 seconds, depth 29, found by <trysol>)
  Gap First Sol.   :   infinite
  Gap Last Sol.    :     572.38 %
  Primal Bound     : +1.42991773274000e+01   (in run 1, after 1890 nodes, 13.14 seconds, depth 20, found by <relaxation>)
  Dual Bound       : +1.42991773274000e+01
  Gap              :       0.00 %
Integrals          :      Total       Avg%
  primal-dual      :    1627.58      92.10
  primal-ref       :          -          - (not evaluated)
  dual-ref         :          -          - (not evaluated)
